c File: instances/34_0.10_1.col
c
c Description: Random graph of size 34 vertices and P(0.1) of edges between any two vertices.
p col 34 561
e 1 20
e 1 25
e 1 34
e 2 4
e 2 8
e 2 12
e 2 30
e 2 32
e 3 5
e 3 11
e 3 12
e 4 5
e 4 12
e 4 23
e 5 13
e 5 18
e 6 16
e 6 31
e 7 13
e 7 20
e 8 13
e 8 23
e 8 33
e 9 15
e 9 25
e 10 19
e 11 15
e 11 25
e 11 34
e 12 14
e 12 17
e 12 32
e 13 18
e 13 24
e 13 27
e 13 34
e 14 26
e 15 20
e 15 25
e 15 26
e 16 17
e 17 32
e 17 33
e 18 19
e 20 33
e 21 28
e 22 29
e 23 31
e 23 32
e 23 34
e 24 30
e 24 34
e 25 27
e 30 34